400
200 200
1 140 418
2 140 837
3 140 642
4 139 802
5 139 911
6 138 541
7 138 593
8 137 939
9 137 13
10 137 888
11 137 129
12 136 728
13 135 943
14 135 634
15 134 398
16 134 332
17 134 8
18 134 241
19 133 877
20 133 164
21 132 640
22 132 234
23 132 860
24 132 647
25 132 238
26 132 847
27 132 136
28 131 91
29 131 44
30 131 545
31 131 5
32 129 392
33 129 309
34 129 695
35 129 813
36 128 786
37 128 922
38 128 135
39 127 572
40 126 217
41 126 305
42 125 709
43 125 639
44 125 218
45 125 174
46 124 750
47 124 811
48 124 571
49 123 399
50 123 23
51 123 410
52 122 19
53 122 353
54 122 613
55 121 0
56 121 82
57 121 375
58 121 748
59 121 820
60 121 566
61 120 700
62 120 600
63 120 814
64 119 591
65 119 874
66 119 7
67 119 187
68 119 18
69 118 36
70 118 3
71 118 582
72 118 678
73 117 37
74 117 821
75 117 391
76 117 195
77 116 694
78 116 189
79 116 526
80 116 927
81 116 561
82 116 187
83 115 944
84 115 246
85 115 238
86 114 310
87 114 509
88 113 585
89 113 397
90 112 131
91 112 840
92 111 127
93 110 308
94 110 467
95 110 79
96 110 968
97 109 114
98 109 488
99 108 484
100 108 535
101 108 927
102 108 657
103 107 662
104 107 691
105 107 66
106 106 937
107 105 3
108 105 229
109 105 82
110 105 310
111 104 35
112 104 922
113 104 36
114 104 721
115 104 602
116 104 941
117 104 163
118 104 205
119 103 375
120 103 145
121 102 238
122 102 983
123 101 491
124 101 464
125 101 666
126 100 548
127 100 484
128 99 55
129 99 320
130 99 329
131 99 125
132 99 905
133 99 519
134 98 41
135 98 1000
136 98 67
137 97 824
138 97 995
139 97 342
140 97 678
141 97 930
142 96 356
143 96 116
144 96 396
145 95 926
146 95 692
147 95 904
148 93 648
149 93 871
150 92 332
151 91 543
152 91 535
153 91 689
154 91 871
155 91 100
156 90 564
157 90 579
158 90 646
159 90 103
160 89 656
161 88 814
162 88 193
163 87 846
164 87 480
165 87 421
166 87 741
167 87 260
168 87 574
169 86 376
170 86 136
171 86 477
172 86 852
173 85 819
174 85 922
175 84 139
176 84 739
177 84 365
178 83 422
179 83 607
180 83 900
181 83 939
182 83 267
183 82 624
184 82 569
185 81 528
186 81 633
187 81 656
188 81 507
189 81 711
190 80 108
191 80 188
192 80 725
193 80 65
194 79 114
195 79 988
196 79 526
197 79 479
198 79 672
199 78 69
200 78 606
201 78 548
202 78 842
203 78 653
204 78 850
205 77 719
206 77 662
207 77 83
208 77 16
209 77 617
210 76 393
211 76 0
212 75 174
213 75 891
214 75 701
215 75 494
216 75 220
217 75 591
218 75 879
219 74 68
220 74 854
221 74 483
222 74 650
223 73 290
224 73 836
225 73 965
226 73 186
227 73 210
228 72 906
229 72 956
230 71 878
231 71 824
232 71 865
233 70 646
234 70 978
235 70 100
236 70 105
237 69 495
238 67 530
239 67 746
240 67 797
241 67 265
242 67 76
243 67 41
244 67 866
245 66 54
246 66 861
247 66 677
248 66 790
249 65 824
250 65 655
251 65 934
252 64 506
253 64 542
254 64 248
255 63 550
256 63 329
257 63 806
258 63 14
259 63 513
260 62 977
261 62 370
262 62 384
263 61 605
264 61 909
265 61 995
266 60 822
267 60 730
268 60 727
269 60 990
270 60 77
271 59 988
272 59 470
273 59 239
274 59 78
275 58 656
276 58 28
277 57 123
278 57 501
279 57 854
280 57 763
281 56 36
282 56 694
283 56 879
284 56 117
285 56 199
286 56 576
287 56 687
288 56 468
289 55 277
290 55 179
291 55 830
292 54 72
293 54 408
294 53 780
295 53 747
296 53 147
297 53 579
298 53 352
299 52 981
300 51 751
301 51 806
302 51 373
303 51 502
304 50 613
305 50 165
306 49 63
307 49 244
308 48 643
309 48 239
310 48 863
311 48 327
312 47 173
313 47 797
314 47 128
315 47 378
316 47 900
317 47 199
318 46 365
319 46 760
320 46 360
321 45 37
322 45 281
323 44 567
324 44 575
325 43 179
326 43 931
327 42 634
328 42 671
329 41 52
330 41 508
331 40 810
332 40 28
333 39 428
334 39 944
335 39 385
336 38 282
337 38 787
338 38 515
339 38 11
340 38 923
341 38 176
342 38 82
343 37 16
344 37 30
345 37 526
346 37 77
347 37 672
348 37 714
349 36 242
350 36 293
351 36 502
352 35 775
353 35 646
354 35 564
355 34 26
356 34 441
357 34 374
358 34 306
359 33 240
360 33 616
361 33 111
362 32 579
363 32 117
364 31 248
365 31 952
366 30 371
367 30 549
368 29 531
369 29 398
370 28 529
371 28 45
372 28 566
373 28 928
374 28 576
375 28 34
376 27 381
377 27 323
378 27 965
379 27 994
380 27 475
381 26 338
382 26 899
383 26 796
384 26 678
385 25 675
386 25 525
387 24 404
388 24 252
389 22 301
390 22 541
391 21 961
392 21 504
393 21 686
394 21 184
395 21 311
396 20 928
397 20 331
398 20 749
399 20 87
400 20 150
